p cnf 136 1080
c max 20 21 22 23 24 25 26 27 28 29 30 31 32 33 34 35 36 37 53 54 55 56 57 58 59 60 61 62 63 64 65 66 67 68 69 70 86 87 88 89 90 91 92 93 94 95 96 97 98 99 100 101 102 103 119 120 121 122 123 124 125 126 127 128 129 130 131 132 133 134 135 136 0
c ind 1 2 3 4 5 6 7 8 9 10 11 12 13 14 15 16 17 18 19 38 39 40 41 42 43 44 45 46 47 48 49 50 51 52 71 72 73 74 75 76 77 78 79 80 81 82 83 84 85 104 105 106 107 108 109 110 111 112 113 114 115 116 117 118 0
c p weight 8 -1 0
c p weight 9 -1 0
c p weight 10 -1 0
c p weight -8 1 0
c p weight -9 1 0
c p weight -10 1 0
c p weight 11 0.70710678118654752440084436210485 0
c p weight 12 0.70710678118654752440084436210485 0
c p weight 13 0.70710678118654752440084436210485 0
c p weight -11 1 0
c p weight -12 1 0
c p weight -13 1 0
c p complex 14 0.70710678118654752440084436210485 0.70710678118654752440084436210485 0
c p complex 15 0.70710678118654752440084436210485 0.70710678118654752440084436210485 0
c p complex 16 0.70710678118654752440084436210485 0.70710678118654752440084436210485 0
c p complex -14 1 0 0
c p complex -15 1 0 0
c p complex -16 1 0 0
c p complex 17 0.70710678118654752440084436210485 -0.70710678118654752440084436210485 0
c p complex 18 0.70710678118654752440084436210485 -0.70710678118654752440084436210485 0
c p complex 19 0.70710678118654752440084436210485 -0.70710678118654752440084436210485 0
c p complex -17 1 0 0
c p complex -18 1 0 0
c p complex -19 1 0 0
c p weight 41 -1 0
c p weight 42 -1 0
c p weight 43 -1 0
c p weight -41 1 0
c p weight -42 1 0
c p weight -43 1 0
c p weight 44 0.70710678118654752440084436210485 0
c p weight 45 0.70710678118654752440084436210485 0
c p weight 46 0.70710678118654752440084436210485 0
c p weight -44 1 0
c p weight -45 1 0
c p weight -46 1 0
c p complex 47 0.70710678118654752440084436210485 0.70710678118654752440084436210485 0
c p complex 48 0.70710678118654752440084436210485 0.70710678118654752440084436210485 0
c p complex 49 0.70710678118654752440084436210485 0.70710678118654752440084436210485 0
c p complex -47 1 0 0
c p complex -48 1 0 0
c p complex -49 1 0 0
c p complex 50 0.70710678118654752440084436210485 -0.70710678118654752440084436210485 0
c p complex 51 0.70710678118654752440084436210485 -0.70710678118654752440084436210485 0
c p complex 52 0.70710678118654752440084436210485 -0.70710678118654752440084436210485 0
c p complex -50 1 0 0
c p complex -51 1 0 0
c p complex -52 1 0 0
c p weight 74 -1 0
c p weight 75 -1 0
c p weight 76 -1 0
c p weight -74 1 0
c p weight -75 1 0
c p weight -76 1 0
c p weight 77 0.70710678118654752440084436210485 0
c p weight 78 0.70710678118654752440084436210485 0
c p weight 79 0.70710678118654752440084436210485 0
c p weight -77 1 0
c p weight -78 1 0
c p weight -79 1 0
c p complex 80 0.70710678118654752440084436210485 0.70710678118654752440084436210485 0
c p complex 81 0.70710678118654752440084436210485 0.70710678118654752440084436210485 0
c p complex 82 0.70710678118654752440084436210485 0.70710678118654752440084436210485 0
c p complex -80 1 0 0
c p complex -81 1 0 0
c p complex -82 1 0 0
c p complex 83 0.70710678118654752440084436210485 -0.70710678118654752440084436210485 0
c p complex 84 0.70710678118654752440084436210485 -0.70710678118654752440084436210485 0
c p complex 85 0.70710678118654752440084436210485 -0.70710678118654752440084436210485 0
c p complex -83 1 0 0
c p complex -84 1 0 0
c p complex -85 1 0 0
c p weight 107 -1 0
c p weight 108 -1 0
c p weight 109 -1 0
c p weight -107 1 0
c p weight -108 1 0
c p weight -109 1 0
c p weight 110 0.70710678118654752440084436210485 0
c p weight 111 0.70710678118654752440084436210485 0
c p weight 112 0.70710678118654752440084436210485 0
c p weight -110 1 0
c p weight -111 1 0
c p weight -112 1 0
c p complex 113 0.70710678118654752440084436210485 0.70710678118654752440084436210485 0
c p complex 114 0.70710678118654752440084436210485 0.70710678118654752440084436210485 0
c p complex 115 0.70710678118654752440084436210485 0.70710678118654752440084436210485 0
c p complex -113 1 0 0
c p complex -114 1 0 0
c p complex -115 1 0 0
c p complex 116 0.70710678118654752440084436210485 -0.70710678118654752440084436210485 0
c p complex 117 0.70710678118654752440084436210485 -0.70710678118654752440084436210485 0
c p complex 118 0.70710678118654752440084436210485 -0.70710678118654752440084436210485 0
c p complex -116 1 0 0
c p complex -117 1 0 0
c p complex -118 1 0 0
4 2 -3 0
4 1 -3 0
-4 2 3 0
-4 1 3 0
4 -2 -1 3 0
-4 -2 -1 -3 0
5 -20 -1 0
-5 -20 1 0
-8 -20 0
-11 -20 0
-17 -20 0
-14 -20 0
-8 5 -23 0
-8 -23 1 0
8 -5 -23 -1 0
11 -23 0
-17 -23 0
-14 -23 0
5 -29 -1 0
5 -26 -1 0
-5 -29 1 0
-5 -26 1 0
-8 -29 0
-8 -26 0
-11 -29 0
-11 -26 0
-17 -26 0
-14 -29 0
17 -29 -1 0
14 -26 -1 0
-17 -29 1 0
-14 -26 1 0
5 -32 -1 0
-5 -32 1 0
6 -32 1 -2 0
6 -32 -1 2 0
-6 -32 1 2 0
-6 -32 -1 -2 0
-8 -32 0
-9 -32 0
-11 -32 0
-12 -32 0
-17 -32 0
-14 -32 0
-18 -32 0
-15 -32 0
5 -33 -1 0
-5 -33 1 0
7 -33 1 -4 0
7 -33 -1 4 0
-7 -33 1 4 0
-7 -33 -1 -4 0
-8 -33 0
-10 -33 0
-11 -33 0
-13 -33 0
-17 -33 0
-14 -33 0
-19 -33 0
-16 -33 0
20 23 26 29 32 33 34 36 0
-20 -23 0
-20 -26 0
-20 -29 0
-20 -32 0
-20 -33 0
-20 -34 0
-20 -36 0
-23 -26 0
-23 -29 0
-23 -32 0
-23 -33 0
-23 -34 0
-23 -36 0
-26 -29 0
-26 -32 0
-26 -33 0
-26 -34 0
-26 -36 0
-29 -32 0
-29 -33 0
-29 -34 0
-29 -36 0
-32 -33 0
-32 -34 0
-32 -36 0
-33 -34 0
-33 -36 0
-34 -36 0
6 -21 -2 0
-6 -21 2 0
-9 -21 0
-12 -21 0
-18 -21 0
-15 -21 0
-9 6 -24 0
-9 -24 2 0
9 -6 -24 -2 0
12 -24 0
-18 -24 0
-15 -24 0
6 -30 -2 0
6 -27 -2 0
-6 -30 2 0
-6 -27 2 0
-9 -30 0
-9 -27 0
-12 -30 0
-12 -27 0
-18 -27 0
-15 -30 0
18 -30 -2 0
15 -27 -2 0
-18 -30 2 0
-15 -27 2 0
6 -34 -2 0
-6 -34 2 0
5 -34 2 -1 0
5 -34 -2 1 0
-5 -34 2 1 0
-5 -34 -2 -1 0
-9 -34 0
-8 -34 0
-12 -34 0
-11 -34 0
-18 -34 0
-15 -34 0
-17 -34 0
-14 -34 0
6 -35 -2 0
-6 -35 2 0
7 -35 2 -4 0
7 -35 -2 4 0
-7 -35 2 4 0
-7 -35 -2 -4 0
-9 -35 0
-10 -35 0
-12 -35 0
-13 -35 0
-18 -35 0
-15 -35 0
-19 -35 0
-16 -35 0
21 24 27 30 34 35 32 37 0
-21 -24 0
-21 -27 0
-21 -30 0
-21 -34 0
-21 -35 0
-21 -32 0
-21 -37 0
-24 -27 0
-24 -30 0
-24 -34 0
-24 -35 0
-24 -32 0
-24 -37 0
-27 -30 0
-27 -34 0
-27 -35 0
-27 -32 0
-27 -37 0
-30 -34 0
-30 -35 0
-30 -32 0
-30 -37 0
-34 -35 0
-34 -32 0
-34 -37 0
-35 -32 0
-35 -37 0
-32 -37 0
7 -22 -4 0
-7 -22 4 0
-10 -22 0
-13 -22 0
-19 -22 0
-16 -22 0
-10 7 -25 0
-10 -25 4 0
10 -7 -25 -4 0
13 -25 0
-19 -25 0
-16 -25 0
7 -31 -4 0
7 -28 -4 0
-7 -31 4 0
-7 -28 4 0
-10 -31 0
-10 -28 0
-13 -31 0
-13 -28 0
-19 -28 0
-16 -31 0
19 -31 -4 0
16 -28 -4 0
-19 -31 4 0
-16 -28 4 0
7 -36 -4 0
-7 -36 4 0
5 -36 4 -1 0
5 -36 -4 1 0
-5 -36 4 1 0
-5 -36 -4 -1 0
-10 -36 0
-8 -36 0
-13 -36 0
-11 -36 0
-19 -36 0
-16 -36 0
-17 -36 0
-14 -36 0
7 -37 -4 0
-7 -37 4 0
6 -37 4 -2 0
6 -37 -4 2 0
-6 -37 4 2 0
-6 -37 -4 -2 0
-10 -37 0
-9 -37 0
-13 -37 0
-12 -37 0
-19 -37 0
-16 -37 0
-18 -37 0
-15 -37 0
22 25 28 31 36 37 33 35 0
-22 -25 0
-22 -28 0
-22 -31 0
-22 -36 0
-22 -37 0
-22 -33 0
-22 -35 0
-25 -28 0
-25 -31 0
-25 -36 0
-25 -37 0
-25 -33 0
-25 -35 0
-28 -31 0
-28 -36 0
-28 -37 0
-28 -33 0
-28 -35 0
-31 -36 0
-31 -37 0
-31 -33 0
-31 -35 0
-36 -37 0
-36 -33 0
-36 -35 0
-37 -33 0
-37 -35 0
-33 -35 0
38 -53 -5 0
-38 -53 5 0
-41 -53 0
-44 -53 0
-50 -53 0
-47 -53 0
-41 38 -56 0
-41 -56 5 0
41 -38 -56 -5 0
44 -56 0
-50 -56 0
-47 -56 0
38 -62 -5 0
38 -59 -5 0
-38 -62 5 0
-38 -59 5 0
-41 -62 0
-41 -59 0
-44 -62 0
-44 -59 0
-50 -59 0
-47 -62 0
50 -62 -5 0
47 -59 -5 0
-50 -62 5 0
-47 -59 5 0
38 -65 -5 0
-38 -65 5 0
39 -65 5 -6 0
39 -65 -5 6 0
-39 -65 5 6 0
-39 -65 -5 -6 0
-41 -65 0
-42 -65 0
-44 -65 0
-45 -65 0
-50 -65 0
-47 -65 0
-51 -65 0
-48 -65 0
38 -66 -5 0
-38 -66 5 0
40 -66 5 -7 0
40 -66 -5 7 0
-40 -66 5 7 0
-40 -66 -5 -7 0
-41 -66 0
-43 -66 0
-44 -66 0
-46 -66 0
-50 -66 0
-47 -66 0
-52 -66 0
-49 -66 0
53 56 59 62 65 66 67 69 0
-53 -56 0
-53 -59 0
-53 -62 0
-53 -65 0
-53 -66 0
-53 -67 0
-53 -69 0
-56 -59 0
-56 -62 0
-56 -65 0
-56 -66 0
-56 -67 0
-56 -69 0
-59 -62 0
-59 -65 0
-59 -66 0
-59 -67 0
-59 -69 0
-62 -65 0
-62 -66 0
-62 -67 0
-62 -69 0
-65 -66 0
-65 -67 0
-65 -69 0
-66 -67 0
-66 -69 0
-67 -69 0
-56 -23 0
-59 -29 0
-62 -26 0
-20 53 65 66 67 69 0
-65 -32 0
-65 -20 -21 0
-66 -33 0
-66 -20 -22 0
39 -54 -6 0
-39 -54 6 0
-42 -54 0
-45 -54 0
-51 -54 0
-48 -54 0
-42 39 -57 0
-42 -57 6 0
42 -39 -57 -6 0
45 -57 0
-51 -57 0
-48 -57 0
39 -63 -6 0
39 -60 -6 0
-39 -63 6 0
-39 -60 6 0
-42 -63 0
-42 -60 0
-45 -63 0
-45 -60 0
-51 -60 0
-48 -63 0
51 -63 -6 0
48 -60 -6 0
-51 -63 6 0
-48 -60 6 0
39 -67 -6 0
-39 -67 6 0
38 -67 6 -5 0
38 -67 -6 5 0
-38 -67 6 5 0
-38 -67 -6 -5 0
-42 -67 0
-41 -67 0
-45 -67 0
-44 -67 0
-51 -67 0
-48 -67 0
-50 -67 0
-47 -67 0
39 -68 -6 0
-39 -68 6 0
40 -68 6 -7 0
40 -68 -6 7 0
-40 -68 6 7 0
-40 -68 -6 -7 0
-42 -68 0
-43 -68 0
-45 -68 0
-46 -68 0
-51 -68 0
-48 -68 0
-52 -68 0
-49 -68 0
54 57 60 63 67 68 65 70 0
-54 -57 0
-54 -60 0
-54 -63 0
-54 -67 0
-54 -68 0
-54 -65 0
-54 -70 0
-57 -60 0
-57 -63 0
-57 -67 0
-57 -68 0
-57 -65 0
-57 -70 0
-60 -63 0
-60 -67 0
-60 -68 0
-60 -65 0
-60 -70 0
-63 -67 0
-63 -68 0
-63 -65 0
-63 -70 0
-67 -68 0
-67 -65 0
-67 -70 0
-68 -65 0
-68 -70 0
-65 -70 0
-57 -24 0
-60 -30 0
-63 -27 0
-21 54 67 68 65 70 0
-67 -34 0
-67 -21 -20 0
-68 -35 0
-68 -21 -22 0
40 -55 -7 0
-40 -55 7 0
-43 -55 0
-46 -55 0
-52 -55 0
-49 -55 0
-43 40 -58 0
-43 -58 7 0
43 -40 -58 -7 0
46 -58 0
-52 -58 0
-49 -58 0
40 -64 -7 0
40 -61 -7 0
-40 -64 7 0
-40 -61 7 0
-43 -64 0
-43 -61 0
-46 -64 0
-46 -61 0
-52 -61 0
-49 -64 0
52 -64 -7 0
49 -61 -7 0
-52 -64 7 0
-49 -61 7 0
40 -69 -7 0
-40 -69 7 0
38 -69 7 -5 0
38 -69 -7 5 0
-38 -69 7 5 0
-38 -69 -7 -5 0
-43 -69 0
-41 -69 0
-46 -69 0
-44 -69 0
-52 -69 0
-49 -69 0
-50 -69 0
-47 -69 0
40 -70 -7 0
-40 -70 7 0
39 -70 7 -6 0
39 -70 -7 6 0
-39 -70 7 6 0
-39 -70 -7 -6 0
-43 -70 0
-42 -70 0
-46 -70 0
-45 -70 0
-52 -70 0
-49 -70 0
-51 -70 0
-48 -70 0
55 58 61 64 69 70 66 68 0
-55 -58 0
-55 -61 0
-55 -64 0
-55 -69 0
-55 -70 0
-55 -66 0
-55 -68 0
-58 -61 0
-58 -64 0
-58 -69 0
-58 -70 0
-58 -66 0
-58 -68 0
-61 -64 0
-61 -69 0
-61 -70 0
-61 -66 0
-61 -68 0
-64 -69 0
-64 -70 0
-64 -66 0
-64 -68 0
-69 -70 0
-69 -66 0
-69 -68 0
-70 -66 0
-70 -68 0
-66 -68 0
-58 -25 0
-61 -31 0
-64 -28 0
-22 55 69 70 66 68 0
-69 -36 0
-69 -22 -20 0
-70 -37 0
-70 -22 -21 0
71 -86 -38 0
-71 -86 38 0
-74 -86 0
-77 -86 0
-83 -86 0
-80 -86 0
-74 71 -89 0
-74 -89 38 0
74 -71 -89 -38 0
77 -89 0
-83 -89 0
-80 -89 0
71 -95 -38 0
71 -92 -38 0
-71 -95 38 0
-71 -92 38 0
-74 -95 0
-74 -92 0
-77 -95 0
-77 -92 0
-83 -92 0
-80 -95 0
83 -95 -38 0
80 -92 -38 0
-83 -95 38 0
-80 -92 38 0
71 -98 -38 0
-71 -98 38 0
72 -98 38 -39 0
72 -98 -38 39 0
-72 -98 38 39 0
-72 -98 -38 -39 0
-74 -98 0
-75 -98 0
-77 -98 0
-78 -98 0
-83 -98 0
-80 -98 0
-84 -98 0
-81 -98 0
71 -99 -38 0
-71 -99 38 0
73 -99 38 -40 0
73 -99 -38 40 0
-73 -99 38 40 0
-73 -99 -38 -40 0
-74 -99 0
-76 -99 0
-77 -99 0
-79 -99 0
-83 -99 0
-80 -99 0
-85 -99 0
-82 -99 0
86 89 92 95 98 99 100 102 0
-86 -89 0
-86 -92 0
-86 -95 0
-86 -98 0
-86 -99 0
-86 -100 0
-86 -102 0
-89 -92 0
-89 -95 0
-89 -98 0
-89 -99 0
-89 -100 0
-89 -102 0
-92 -95 0
-92 -98 0
-92 -99 0
-92 -100 0
-92 -102 0
-95 -98 0
-95 -99 0
-95 -100 0
-95 -102 0
-98 -99 0
-98 -100 0
-98 -102 0
-99 -100 0
-99 -102 0
-100 -102 0
-89 -56 0
-92 -62 0
-95 -59 0
-53 86 98 99 100 102 0
-98 -65 0
-98 -53 -54 0
-99 -66 0
-99 -53 -55 0
72 -87 -39 0
-72 -87 39 0
-75 -87 0
-78 -87 0
-84 -87 0
-81 -87 0
-75 72 -90 0
-75 -90 39 0
75 -72 -90 -39 0
78 -90 0
-84 -90 0
-81 -90 0
72 -96 -39 0
72 -93 -39 0
-72 -96 39 0
-72 -93 39 0
-75 -96 0
-75 -93 0
-78 -96 0
-78 -93 0
-84 -93 0
-81 -96 0
84 -96 -39 0
81 -93 -39 0
-84 -96 39 0
-81 -93 39 0
72 -100 -39 0
-72 -100 39 0
71 -100 39 -38 0
71 -100 -39 38 0
-71 -100 39 38 0
-71 -100 -39 -38 0
-75 -100 0
-74 -100 0
-78 -100 0
-77 -100 0
-84 -100 0
-81 -100 0
-83 -100 0
-80 -100 0
72 -101 -39 0
-72 -101 39 0
73 -101 39 -40 0
73 -101 -39 40 0
-73 -101 39 40 0
-73 -101 -39 -40 0
-75 -101 0
-76 -101 0
-78 -101 0
-79 -101 0
-84 -101 0
-81 -101 0
-85 -101 0
-82 -101 0
87 90 93 96 100 101 98 103 0
-87 -90 0
-87 -93 0
-87 -96 0
-87 -100 0
-87 -101 0
-87 -98 0
-87 -103 0
-90 -93 0
-90 -96 0
-90 -100 0
-90 -101 0
-90 -98 0
-90 -103 0
-93 -96 0
-93 -100 0
-93 -101 0
-93 -98 0
-93 -103 0
-96 -100 0
-96 -101 0
-96 -98 0
-96 -103 0
-100 -101 0
-100 -98 0
-100 -103 0
-101 -98 0
-101 -103 0
-98 -103 0
-90 -57 0
-93 -63 0
-96 -60 0
-54 87 100 101 98 103 0
-100 -67 0
-100 -54 -53 0
-101 -68 0
-101 -54 -55 0
73 -88 -40 0
-73 -88 40 0
-76 -88 0
-79 -88 0
-85 -88 0
-82 -88 0
-76 73 -91 0
-76 -91 40 0
76 -73 -91 -40 0
79 -91 0
-85 -91 0
-82 -91 0
73 -97 -40 0
73 -94 -40 0
-73 -97 40 0
-73 -94 40 0
-76 -97 0
-76 -94 0
-79 -97 0
-79 -94 0
-85 -94 0
-82 -97 0
85 -97 -40 0
82 -94 -40 0
-85 -97 40 0
-82 -94 40 0
73 -102 -40 0
-73 -102 40 0
71 -102 40 -38 0
71 -102 -40 38 0
-71 -102 40 38 0
-71 -102 -40 -38 0
-76 -102 0
-74 -102 0
-79 -102 0
-77 -102 0
-85 -102 0
-82 -102 0
-83 -102 0
-80 -102 0
73 -103 -40 0
-73 -103 40 0
72 -103 40 -39 0
72 -103 -40 39 0
-72 -103 40 39 0
-72 -103 -40 -39 0
-76 -103 0
-75 -103 0
-79 -103 0
-78 -103 0
-85 -103 0
-82 -103 0
-84 -103 0
-81 -103 0
88 91 94 97 102 103 99 101 0
-88 -91 0
-88 -94 0
-88 -97 0
-88 -102 0
-88 -103 0
-88 -99 0
-88 -101 0
-91 -94 0
-91 -97 0
-91 -102 0
-91 -103 0
-91 -99 0
-91 -101 0
-94 -97 0
-94 -102 0
-94 -103 0
-94 -99 0
-94 -101 0
-97 -102 0
-97 -103 0
-97 -99 0
-97 -101 0
-102 -103 0
-102 -99 0
-102 -101 0
-103 -99 0
-103 -101 0
-99 -101 0
-91 -58 0
-94 -64 0
-97 -61 0
-55 88 102 103 99 101 0
-102 -69 0
-102 -55 -53 0
-103 -70 0
-103 -55 -54 0
104 -119 -71 0
-104 -119 71 0
-107 -119 0
-110 -119 0
-116 -119 0
-113 -119 0
-107 104 -122 0
-107 -122 71 0
107 -104 -122 -71 0
110 -122 0
-116 -122 0
-113 -122 0
104 -128 -71 0
104 -125 -71 0
-104 -128 71 0
-104 -125 71 0
-107 -128 0
-107 -125 0
-110 -128 0
-110 -125 0
-116 -125 0
-113 -128 0
116 -128 -71 0
113 -125 -71 0
-116 -128 71 0
-113 -125 71 0
104 -131 -71 0
-104 -131 71 0
105 -131 71 -72 0
105 -131 -71 72 0
-105 -131 71 72 0
-105 -131 -71 -72 0
-107 -131 0
-108 -131 0
-110 -131 0
-111 -131 0
-116 -131 0
-113 -131 0
-117 -131 0
-114 -131 0
104 -132 -71 0
-104 -132 71 0
106 -132 71 -73 0
106 -132 -71 73 0
-106 -132 71 73 0
-106 -132 -71 -73 0
-107 -132 0
-109 -132 0
-110 -132 0
-112 -132 0
-116 -132 0
-113 -132 0
-118 -132 0
-115 -132 0
119 122 125 128 131 132 133 135 0
-119 -122 0
-119 -125 0
-119 -128 0
-119 -131 0
-119 -132 0
-119 -133 0
-119 -135 0
-122 -125 0
-122 -128 0
-122 -131 0
-122 -132 0
-122 -133 0
-122 -135 0
-125 -128 0
-125 -131 0
-125 -132 0
-125 -133 0
-125 -135 0
-128 -131 0
-128 -132 0
-128 -133 0
-128 -135 0
-131 -132 0
-131 -133 0
-131 -135 0
-132 -133 0
-132 -135 0
-133 -135 0
-122 -89 0
-125 -95 0
-128 -92 0
-86 119 131 132 133 135 0
-131 -98 0
-131 -86 -87 0
-132 -99 0
-132 -86 -88 0
105 -120 -72 0
-105 -120 72 0
-108 -120 0
-111 -120 0
-117 -120 0
-114 -120 0
-108 105 -123 0
-108 -123 72 0
108 -105 -123 -72 0
111 -123 0
-117 -123 0
-114 -123 0
105 -129 -72 0
105 -126 -72 0
-105 -129 72 0
-105 -126 72 0
-108 -129 0
-108 -126 0
-111 -129 0
-111 -126 0
-117 -126 0
-114 -129 0
117 -129 -72 0
114 -126 -72 0
-117 -129 72 0
-114 -126 72 0
105 -133 -72 0
-105 -133 72 0
104 -133 72 -71 0
104 -133 -72 71 0
-104 -133 72 71 0
-104 -133 -72 -71 0
-108 -133 0
-107 -133 0
-111 -133 0
-110 -133 0
-117 -133 0
-114 -133 0
-116 -133 0
-113 -133 0
105 -134 -72 0
-105 -134 72 0
106 -134 72 -73 0
106 -134 -72 73 0
-106 -134 72 73 0
-106 -134 -72 -73 0
-108 -134 0
-109 -134 0
-111 -134 0
-112 -134 0
-117 -134 0
-114 -134 0
-118 -134 0
-115 -134 0
120 123 126 129 133 134 131 136 0
-120 -123 0
-120 -126 0
-120 -129 0
-120 -133 0
-120 -134 0
-120 -131 0
-120 -136 0
-123 -126 0
-123 -129 0
-123 -133 0
-123 -134 0
-123 -131 0
-123 -136 0
-126 -129 0
-126 -133 0
-126 -134 0
-126 -131 0
-126 -136 0
-129 -133 0
-129 -134 0
-129 -131 0
-129 -136 0
-133 -134 0
-133 -131 0
-133 -136 0
-134 -131 0
-134 -136 0
-131 -136 0
-123 -90 0
-126 -96 0
-129 -93 0
-87 120 133 134 131 136 0
-133 -100 0
-133 -87 -86 0
-134 -101 0
-134 -87 -88 0
106 -121 -73 0
-106 -121 73 0
-109 -121 0
-112 -121 0
-118 -121 0
-115 -121 0
-109 106 -124 0
-109 -124 73 0
109 -106 -124 -73 0
112 -124 0
-118 -124 0
-115 -124 0
106 -130 -73 0
106 -127 -73 0
-106 -130 73 0
-106 -127 73 0
-109 -130 0
-109 -127 0
-112 -130 0
-112 -127 0
-118 -127 0
-115 -130 0
118 -130 -73 0
115 -127 -73 0
-118 -130 73 0
-115 -127 73 0
106 -135 -73 0
-106 -135 73 0
104 -135 73 -71 0
104 -135 -73 71 0
-104 -135 73 71 0
-104 -135 -73 -71 0
-109 -135 0
-107 -135 0
-112 -135 0
-110 -135 0
-118 -135 0
-115 -135 0
-116 -135 0
-113 -135 0
106 -136 -73 0
-106 -136 73 0
105 -136 73 -72 0
105 -136 -73 72 0
-105 -136 73 72 0
-105 -136 -73 -72 0
-109 -136 0
-108 -136 0
-112 -136 0
-111 -136 0
-118 -136 0
-115 -136 0
-117 -136 0
-114 -136 0
121 124 127 130 135 136 132 134 0
-121 -124 0
-121 -127 0
-121 -130 0
-121 -135 0
-121 -136 0
-121 -132 0
-121 -134 0
-124 -127 0
-124 -130 0
-124 -135 0
-124 -136 0
-124 -132 0
-124 -134 0
-127 -130 0
-127 -135 0
-127 -136 0
-127 -132 0
-127 -134 0
-130 -135 0
-130 -136 0
-130 -132 0
-130 -134 0
-135 -136 0
-135 -132 0
-135 -134 0
-136 -132 0
-136 -134 0
-132 -134 0
-124 -91 0
-127 -97 0
-130 -94 0
-88 121 135 136 132 134 0
-135 -102 0
-135 -88 -86 0
-136 -103 0
-136 -88 -87 0
104 -1 0
-104 1 0
105 -2 0
-105 2 0
106 -3 0
-106 3 0
